Girls = {"Selma G", "Selma H", "Sofie", "Elise", "Ronja", "Emma", "Nicoline", "Mathilde", "Dicte", "Hanna" };
Boys= {"Christian", "Marius S", "Marius R", "Ebbe", "Elias", "Bertram", "Bastian", "Luca", "Mads", "Mikkel", "Laurits", "Storm"};
numOfEvents = 6;
minNumGuests = 4;
maxNumGuests = 5;